31 2000
7 182
8 137
9 119
8 121
4 154
11 182
5 142
3 118
11 185
7 165
9 181
10 165
5 170
5 157
2 181
10 118
4 16
4 170
6 157
3 121
3 115
3 119
2 145
11 115
11 142
2 145
7 185
9 131
6 154
2 131
10 137
